proyfinal/src/viki/013/experimentInOfficeAgust.take6.output/845a4e36-7e02-46d7-bfd9-b0a10c737387.als.dat
{'cnf.clauses': '118081',
 'cnf.totvars': '69608',
 'conflict literals': '197',
 'conflicts': '38',
 'decisions': '2546',
 'memused.mb': '15.15',
 'outcome': 'UNSAT',
 'propagations': '74224',
 'restarts': '1',
 'solver.msecs': 34,
 'task.msecs': 112}
