proyfinal/src/viki/013/experimentInOfficeAgust.take6.output/845a4e36-7e02-46d7-bfd9-b0a10c737387.als.out
Reading from standard input... Use '--help' for help.
============================[ Problem Statistics ]=============================
|                                                                             |
|  Number of variables:         69608                                         |
|  Number of clauses:          118081                                         |
|  Parse time:                   0.02 s                                       |
|                                                                             |
============================[ Search Statistics ]==============================
| Conflicts |          ORIGINAL         |          LEARNT          | Progress |
|           |    Vars  Clauses Literals |    Limit  Clauses Lit/Cl |          |
===============================================================================
===============================================================================
restarts              : 1
conflicts             : 38             (1103 /sec)
decisions             : 2546           (0.00 % random) (73919 /sec)
propagations          : 74224          (2154981 /sec)
conflict literals     : 197            (17.57 % deleted)
Memory used           : 15.15 MB
CPU time              : 0.034443 s

UNSATISFIABLE
